\ENCODING=ISO-8859-1
\Problem name: IVM_master_problem

Minimize
 obj: 100 z + 10000 r_super + 13 r_1_9 + 13 r_2_9 + 13 r_3_9 + 13 r_4_9
      + 13 r_5_9 + 13 r_6_9 + 13 r_7_9 + 13 r_8_9 + 12.8 r_1_27 + 12.8 r_2_27
      + 12.8 r_3_27 + 12.8 r_4_27 + 12.8 r_5_27 + 12.8 r_6_27 + 12.8 r_7_27
      + 12.8 r_8_27 + 14.8 r_1_28 + 14.8 r_2_28 + 14.8 r_3_28 + 14.8 r_4_28
      + 14.8 r_5_28 + 14.8 r_6_28 + 14.8 r_7_28 + 14.8 r_8_28 + 12.8 r_1_31
      + 12.8 r_2_31 + 12.8 r_3_31 + 12.8 r_4_31 + 12.8 r_5_31 + 12.8 r_6_31
      + 12.8 r_7_31 + 12.8 r_8_31 + 17.4 r_1_39 + 17.4 r_2_39 + 17.4 r_3_39
      + 17.4 r_4_39 + 17.4 r_5_39 + 17.4 r_6_39 + 17.4 r_7_39 + 17.4 r_8_39
      + 13.7 r_1_43 + 13.7 r_2_43 + 13.7 r_3_43 + 13.7 r_4_43 + 13.7 r_5_43
      + 13.7 r_6_43 + 13.7 r_7_43 + 13.7 r_8_43 + 21.5 r_1_45 + 21.5 r_2_45
      + 21.5 r_3_45 + 21.5 r_4_45 + 21.5 r_5_45 + 21.5 r_6_45 + 21.5 r_7_45
      + 21.5 r_8_45 + 24.9 r_1_1 + 24.9 r_2_1 + 24.9 r_3_1 + 24.9 r_4_1
      + 24.9 r_5_1 + 24.9 r_6_1 + 24.9 r_7_1 + 24.9 r_8_1 + 22.8 r_1_2
      + 22.8 r_2_2 + 22.8 r_3_2 + 22.8 r_4_2 + 22.8 r_5_2 + 22.8 r_6_2
      + 22.8 r_7_2 + 22.8 r_8_2 + 21.9 r_1_4 + 21.9 r_2_4 + 21.9 r_3_4
      + 21.9 r_4_4 + 21.9 r_5_4 + 21.9 r_6_4 + 21.9 r_7_4 + 21.9 r_8_4
      + 21.5 r_1_2 + 21.5 r_2_2 + 21.5 r_3_2 + 21.5 r_4_2 + 21.5 r_5_2
      + 21.5 r_6_2 + 21.5 r_7_2 + 21.5 r_8_2 + 13.9 r_1_2 + 13.9 r_2_2
      + 13.9 r_3_2 + 13.9 r_4_2 + 13.9 r_5_2 + 13.9 r_6_2 + 13.9 r_7_2
      + 13.9 r_8_2 + 19.8 r_1_5 + 19.8 r_2_5 + 19.8 r_3_5 + 19.8 r_4_5
      + 19.8 r_5_5 + 19.8 r_6_5 + 19.8 r_7_5 + 19.8 r_8_5 + 18.6 r_1_4
      + 18.6 r_2_4 + 18.6 r_3_4 + 18.6 r_4_4 + 18.6 r_5_4 + 18.6 r_6_4
      + 18.6 r_7_4 + 18.6 r_8_4 + 23.7 r_1_1 + 23.7 r_2_1 + 23.7 r_3_1
      + 23.7 r_4_1 + 23.7 r_5_1 + 23.7 r_6_1 + 23.7 r_7_1 + 23.7 r_8_1
      + 23.1 r_1_3 + 23.1 r_2_3 + 23.1 r_3_3 + 23.1 r_4_3 + 23.1 r_5_3
      + 23.1 r_6_3 + 23.1 r_7_3 + 23.1 r_8_3 + 20.7 r_1_4 + 20.7 r_2_4
      + 20.7 r_3_4 + 20.7 r_4_4 + 20.7 r_5_4 + 20.7 r_6_4 + 20.7 r_7_4
      + 20.7 r_8_4 + 25.7 r_1_2 + 25.7 r_2_2 + 25.7 r_3_2 + 25.7 r_4_2
      + 25.7 r_5_2 + 25.7 r_6_2 + 25.7 r_7_2 + 25.7 r_8_2 + 18.6 r_1_1
      + 18.6 r_2_1 + 18.6 r_3_1 + 18.6 r_4_1 + 18.6 r_5_1 + 18.6 r_6_1
      + 18.6 r_7_1 + 18.6 r_8_1 + 17.4 r_1_2 + 17.4 r_2_2 + 17.4 r_3_2
      + 17.4 r_4_2 + 17.4 r_5_2 + 17.4 r_6_2 + 17.4 r_7_2 + 17.4 r_8_2
      + 20.8 r_1_2 + 20.8 r_2_2 + 20.8 r_3_2 + 20.8 r_4_2 + 20.8 r_5_2
      + 20.8 r_6_2 + 20.8 r_7_2 + 20.8 r_8_2 + 19.2 r_1_3 + 19.2 r_2_3
      + 19.2 r_3_3 + 19.2 r_4_3 + 19.2 r_5_3 + 19.2 r_6_3 + 19.2 r_7_3
      + 19.2 r_8_3 + 16.5 r_1_1 + 16.5 r_2_1 + 16.5 r_3_1 + 16.5 r_4_1
      + 16.5 r_5_1 + 16.5 r_6_1 + 16.5 r_7_1 + 16.5 r_8_1 + 24.8 r_1_3
      + 24.8 r_2_3 + 24.8 r_3_3 + 24.8 r_4_3 + 24.8 r_5_3 + 24.8 r_6_3
      + 24.8 r_7_3 + 24.8 r_8_3 + 22 r_1_1 + 22 r_2_1 + 22 r_3_1 + 22 r_4_1
      + 22 r_5_1 + 22 r_6_1 + 22 r_7_1 + 22 r_8_1 + 22.2 r_1_3 + 22.2 r_2_3
      + 22.2 r_3_3 + 22.2 r_4_3 + 22.2 r_5_3 + 22.2 r_6_3 + 22.2 r_7_3
      + 22.2 r_8_3 + 19.5 r_1_1 + 19.5 r_2_1 + 19.5 r_3_1 + 19.5 r_4_1
      + 19.5 r_5_1 + 19.5 r_6_1 + 19.5 r_7_1 + 19.5 r_8_1 + 20.5 r_1_2
      + 20.5 r_2_2 + 20.5 r_3_2 + 20.5 r_4_2 + 20.5 r_5_2 + 20.5 r_6_2
      + 20.5 r_7_2 + 20.5 r_8_2 + 22.1 r_1_1 + 22.1 r_2_1 + 22.1 r_3_1
      + 22.1 r_4_1 + 22.1 r_5_1 + 22.1 r_6_1 + 22.1 r_7_1 + 22.1 r_8_1
      + 19.2 r_1_2 + 19.2 r_2_2 + 19.2 r_3_2 + 19.2 r_4_2 + 19.2 r_5_2
      + 19.2 r_6_2 + 19.2 r_7_2 + 19.2 r_8_2 + 22.6 r_1_1 + 22.6 r_2_1
      + 22.6 r_3_1 + 22.6 r_4_1 + 22.6 r_5_1 + 22.6 r_6_1 + 22.6 r_7_1
      + 22.6 r_8_1 + 22.8 r_1_2 + 22.8 r_2_2 + 22.8 r_3_2 + 22.8 r_4_2
      + 22.8 r_5_2 + 22.8 r_6_2 + 22.8 r_7_2 + 22.8 r_8_2
Subject To
 c1_1:     10.04 r_super + 2 r_1_39 + 2 r_2_39 + 2 r_3_39 + 2 r_4_39 + 2 r_5_39
           + 2 r_6_39 + 2 r_7_39 + 2 r_8_39 + 1.13659898477157 r_1_1
           + 1.13659898477157 r_2_1 + 1.13659898477157 r_3_1
           + 1.13659898477157 r_4_1 + 1.13659898477157 r_5_1
           + 1.13659898477157 r_6_1 + 1.13659898477157 r_7_1
           + 1.13659898477157 r_8_1 + 1.13659898477157 r_1_2
           + 1.13659898477157 r_2_2 + 1.13659898477157 r_3_2
           + 1.13659898477157 r_4_2 + 1.13659898477157 r_5_2
           + 1.13659898477157 r_6_2 + 1.13659898477157 r_7_2
           + 1.13659898477157 r_8_2 + 2 r_1_1 + 2 r_2_1 + 2 r_3_1 + 2 r_4_1
           + 2 r_5_1 + 2 r_6_1 + 2 r_7_1 + 2 r_8_1 + 1.13659898477157 r_1_1
           + 1.13659898477157 r_2_1 + 1.13659898477157 r_3_1
           + 1.13659898477157 r_4_1 + 1.13659898477157 r_5_1
           + 1.13659898477157 r_6_1 + 1.13659898477157 r_7_1
           + 1.13659898477157 r_8_1 + 1.99380710659898 r_1_2
           + 1.99380710659898 r_2_2 + 1.99380710659898 r_3_2
           + 1.99380710659898 r_4_2 + 1.99380710659898 r_5_2
           + 1.99380710659898 r_6_2 + 1.99380710659898 r_7_2
           + 1.99380710659898 r_8_2 >= 9.04
 c1_2:     20.23 r_super + 2 r_1_27 + 2 r_2_27 + 2 r_3_27 + 2 r_4_27 + 2 r_5_27
           + 2 r_6_27 + 2 r_7_27 + 2 r_8_27 + 2 r_1_31 + 2 r_2_31 + 2 r_3_31
           + 2 r_4_31 + 2 r_5_31 + 2 r_6_31 + 2 r_7_31 + 2 r_8_31
           + 0.882882882882883 r_1_2 + 0.882882882882883 r_2_2
           + 0.882882882882883 r_3_2 + 0.882882882882883 r_4_2
           + 0.882882882882883 r_5_2 + 0.882882882882883 r_6_2
           + 0.882882882882883 r_7_2 + 0.882882882882883 r_8_2
           + 0.685675675675675 r_1_1 + 0.685675675675675 r_2_1
           + 0.685675675675675 r_3_1 + 0.685675675675675 r_4_1
           + 0.685675675675675 r_5_1 + 0.685675675675675 r_6_1
           + 0.685675675675675 r_7_1 + 0.685675675675675 r_8_1
           + 0.685675675675675 r_1_2 + 0.685675675675675 r_2_2
           + 0.685675675675675 r_3_2 + 0.685675675675675 r_4_2
           + 0.685675675675675 r_5_2 + 0.685675675675675 r_6_2
           + 0.685675675675675 r_7_2 + 0.685675675675675 r_8_2 >= 19.23
 c1_3:     22.54 r_super + 2 r_1_45 + 2 r_2_45 + 2 r_3_45 + 2 r_4_45 + 2 r_5_45
           + 2 r_6_45 + 2 r_7_45 + 2 r_8_45 + 2 r_1_2 + 2 r_2_2 + 2 r_3_2
           + 2 r_4_2 + 2 r_5_2 + 2 r_6_2 + 2 r_7_2 + 2 r_8_2 + 2 r_1_2
           + 2 r_2_2 + 2 r_3_2 + 2 r_4_2 + 2 r_5_2 + 2 r_6_2 + 2 r_7_2
           + 2 r_8_2 + 2 r_1_3 + 2 r_2_3 + 2 r_3_3 + 2 r_4_3 + 2 r_5_3
           + 2 r_6_3 + 2 r_7_3 + 2 r_8_3 >= 21.54
 c1_4:     14.27 r_super + 0.879227053140097 r_1_39 + 0.879227053140097 r_2_39
           + 0.879227053140097 r_3_39 + 0.879227053140097 r_4_39
           + 0.879227053140097 r_5_39 + 0.879227053140097 r_6_39
           + 0.879227053140097 r_7_39 + 0.879227053140097 r_8_39
           + 0.845410628019324 r_1_45 + 0.845410628019324 r_2_45
           + 0.845410628019324 r_3_45 + 0.845410628019324 r_4_45
           + 0.845410628019324 r_5_45 + 0.845410628019324 r_6_45
           + 0.845410628019324 r_7_45 + 0.845410628019324 r_8_45
           + 0.845410628019324 r_1_2 + 0.845410628019324 r_2_2
           + 0.845410628019324 r_3_2 + 0.845410628019324 r_4_2
           + 0.845410628019324 r_5_2 + 0.845410628019324 r_6_2
           + 0.845410628019324 r_7_2 + 0.845410628019324 r_8_2 + 2 r_1_4
           + 2 r_2_4 + 2 r_3_4 + 2 r_4_4 + 2 r_5_4 + 2 r_6_4 + 2 r_7_4
           + 2 r_8_4 + 1.70091787439614 r_1_2 + 1.70091787439614 r_2_2
           + 1.70091787439614 r_3_2 + 1.70091787439614 r_4_2
           + 1.70091787439614 r_5_2 + 1.70091787439614 r_6_2
           + 1.70091787439614 r_7_2 + 1.70091787439614 r_8_2
           + 1.93574879227053 r_1_3 + 1.93574879227053 r_2_3
           + 1.93574879227053 r_3_3 + 1.93574879227053 r_4_3
           + 1.93574879227053 r_5_3 + 1.93574879227053 r_6_3
           + 1.93574879227053 r_7_3 + 1.93574879227053 r_8_3
           + 0.483429951690822 r_1_2 + 0.483429951690822 r_2_2
           + 0.483429951690822 r_3_2 + 0.483429951690822 r_4_2
           + 0.483429951690822 r_5_2 + 0.483429951690822 r_6_2
           + 0.483429951690822 r_7_2 + 0.483429951690822 r_8_2 >= 13.27
 c1_5:     5.54 r_super + 2 r_1_4 + 2 r_2_4 + 2 r_3_4 + 2 r_4_4 + 2 r_5_4
           + 2 r_6_4 + 2 r_7_4 + 2 r_8_4 + 1.96583815028902 r_1_1
           + 1.96583815028902 r_2_1 + 1.96583815028902 r_3_1
           + 1.96583815028902 r_4_1 + 1.96583815028902 r_5_1
           + 1.96583815028902 r_6_1 + 1.96583815028902 r_7_1
           + 1.96583815028902 r_8_1 + 2 r_1_2 + 2 r_2_2 + 2 r_3_2 + 2 r_4_2
           + 2 r_5_2 + 2 r_6_2 + 2 r_7_2 + 2 r_8_2 >= 4.54
 c1_6:     7.35 r_super + 2 r_1_9 + 2 r_2_9 + 2 r_3_9 + 2 r_4_9 + 2 r_5_9
           + 2 r_6_9 + 2 r_7_9 + 2 r_8_9 + 0.529850746268656 r_1_3
           + 0.529850746268656 r_2_3 + 0.529850746268656 r_3_3
           + 0.529850746268656 r_4_3 + 0.529850746268656 r_5_3
           + 0.529850746268656 r_6_3 + 0.529850746268656 r_7_3
           + 0.529850746268656 r_8_3 + 0.552238805970149 r_1_3
           + 0.552238805970149 r_2_3 + 0.552238805970149 r_3_3
           + 0.552238805970149 r_4_3 + 0.552238805970149 r_5_3
           + 0.552238805970149 r_6_3 + 0.552238805970149 r_7_3
           + 0.552238805970149 r_8_3 + 0.420746268656717 r_1_1
           + 0.420746268656717 r_2_1 + 0.420746268656717 r_3_1
           + 0.420746268656717 r_4_1 + 0.420746268656717 r_5_1
           + 0.420746268656717 r_6_1 + 0.420746268656717 r_7_1
           + 0.420746268656717 r_8_1 + 0.420746268656717 r_1_2
           + 0.420746268656717 r_2_2 + 0.420746268656717 r_3_2
           + 0.420746268656717 r_4_2 + 0.420746268656717 r_5_2
           + 0.420746268656717 r_6_2 + 0.420746268656717 r_7_2
           + 0.420746268656717 r_8_2 >= 6.35
 c1_7:     6.73 r_super + 2 r_1_28 + 2 r_2_28 + 2 r_3_28 + 2 r_4_28 + 2 r_5_28
           + 2 r_6_28 + 2 r_7_28 + 2 r_8_28 + 0.225806451612903 r_1_1
           + 0.225806451612903 r_2_1 + 0.225806451612903 r_3_1
           + 0.225806451612903 r_4_1 + 0.225806451612903 r_5_1
           + 0.225806451612903 r_6_1 + 0.225806451612903 r_7_1
           + 0.225806451612903 r_8_1 + 0.423963133640553 r_1_2
           + 0.423963133640553 r_2_2 + 0.423963133640553 r_3_2
           + 0.423963133640553 r_4_2 + 0.423963133640553 r_5_2
           + 0.423963133640553 r_6_2 + 0.423963133640553 r_7_2
           + 0.423963133640553 r_8_2 + 0.852534562211982 r_1_4
           + 0.852534562211982 r_2_4 + 0.852534562211982 r_3_4
           + 0.852534562211982 r_4_4 + 0.852534562211982 r_5_4
           + 0.852534562211982 r_6_4 + 0.852534562211982 r_7_4
           + 0.852534562211982 r_8_4 + 2 r_1_5 + 2 r_2_5 + 2 r_3_5 + 2 r_4_5
           + 2 r_5_5 + 2 r_6_5 + 2 r_7_5 + 2 r_8_5 + 0.59447004608295 r_1_4
           + 0.59447004608295 r_2_4 + 0.59447004608295 r_3_4
           + 0.59447004608295 r_4_4 + 0.59447004608295 r_5_4
           + 0.59447004608295 r_6_4 + 0.59447004608295 r_7_4
           + 0.59447004608295 r_8_4 >= 5.73
 c1_8:     7.38 r_super + 0.683913043478261 r_1_3 + 0.683913043478261 r_2_3
           + 0.683913043478261 r_3_3 + 0.683913043478261 r_4_3
           + 0.683913043478261 r_5_3 + 0.683913043478261 r_6_3
           + 0.683913043478261 r_7_3 + 0.683913043478261 r_8_3 + 2 r_1_1
           + 2 r_2_1 + 2 r_3_1 + 2 r_4_1 + 2 r_5_1 + 2 r_6_1 + 2 r_7_1
           + 2 r_8_1 + 1.991 r_1_2 + 1.991 r_2_2 + 1.991 r_3_2 + 1.991 r_4_2
           + 1.991 r_5_2 + 1.991 r_6_2 + 1.991 r_7_2 + 1.991 r_8_2 >= 6.38
 c1_9:     5.88 r_super + 2 r_1_1 + 2 r_2_1 + 2 r_3_1 + 2 r_4_1 + 2 r_5_1
           + 2 r_6_1 + 2 r_7_1 + 2 r_8_1 + 2 r_1_2 + 2 r_2_2 + 2 r_3_2
           + 2 r_4_2 + 2 r_5_2 + 2 r_6_2 + 2 r_7_2 + 2 r_8_2
           + 0.358407079646017 r_1_1 + 0.358407079646017 r_2_1
           + 0.358407079646017 r_3_1 + 0.358407079646017 r_4_1
           + 0.358407079646017 r_5_1 + 0.358407079646017 r_6_1
           + 0.358407079646017 r_7_1 + 0.358407079646017 r_8_1
           + 0.615044247787611 r_1_3 + 0.615044247787611 r_2_3
           + 0.615044247787611 r_3_3 + 0.615044247787611 r_4_3
           + 0.615044247787611 r_5_3 + 0.615044247787611 r_6_3
           + 0.615044247787611 r_7_3 + 0.615044247787611 r_8_3
           + 0.588495575221239 r_1_2 + 0.588495575221239 r_2_2
           + 0.588495575221239 r_3_2 + 0.588495575221239 r_4_2
           + 0.588495575221239 r_5_2 + 0.588495575221239 r_6_2
           + 0.588495575221239 r_7_2 + 0.588495575221239 r_8_2 >= 4.88
 c1_10:    16.08 r_super + 2 r_1_43 + 2 r_2_43 + 2 r_3_43 + 2 r_4_43 + 2 r_5_43
           + 2 r_6_43 + 2 r_7_43 + 2 r_8_43 + 2 r_1_4 + 2 r_2_4 + 2 r_3_4
           + 2 r_4_4 + 2 r_5_4 + 2 r_6_4 + 2 r_7_4 + 2 r_8_4 + 2 r_1_1
           + 2 r_2_1 + 2 r_3_1 + 2 r_4_1 + 2 r_5_1 + 2 r_6_1 + 2 r_7_1
           + 2 r_8_1 + 0.319444444444445 r_1_1 + 0.319444444444445 r_2_1
           + 0.319444444444445 r_3_1 + 0.319444444444445 r_4_1
           + 0.319444444444445 r_5_1 + 0.319444444444445 r_6_1
           + 0.319444444444445 r_7_1 + 0.319444444444445 r_8_1
           + 1.89462962962963 r_1_2 + 1.89462962962963 r_2_2
           + 1.89462962962963 r_3_2 + 1.89462962962963 r_4_2
           + 1.89462962962963 r_5_2 + 1.89462962962963 r_6_2
           + 1.89462962962963 r_7_2 + 1.89462962962963 r_8_2 >= 15.08
 c1_11:    12.38 r_super + 2 r_1_3 + 2 r_2_3 + 2 r_3_3 + 2 r_4_3 + 2 r_5_3
           + 2 r_6_3 + 2 r_7_3 + 2 r_8_3 + 1.98831578947368 r_1_1
           + 1.98831578947368 r_2_1 + 1.98831578947368 r_3_1
           + 1.98831578947368 r_4_1 + 1.98831578947368 r_5_1
           + 1.98831578947368 r_6_1 + 1.98831578947368 r_7_1
           + 1.98831578947368 r_8_1 + 2 r_1_3 + 2 r_2_3 + 2 r_3_3 + 2 r_4_3
           + 2 r_5_3 + 2 r_6_3 + 2 r_7_3 + 2 r_8_3 >= 11.38
 c1_12:    6.62 r_super + 0.595959595959596 r_1_5 + 0.595959595959596 r_2_5
           + 0.595959595959596 r_3_5 + 0.595959595959596 r_4_5
           + 0.595959595959596 r_5_5 + 0.595959595959596 r_6_5
           + 0.595959595959596 r_7_5 + 0.595959595959596 r_8_5
           + 0.666666666666667 r_1_4 + 0.666666666666667 r_2_4
           + 0.666666666666667 r_3_4 + 0.666666666666667 r_4_4
           + 0.666666666666667 r_5_4 + 0.666666666666667 r_6_4
           + 0.666666666666667 r_7_4 + 0.666666666666667 r_8_4
           + 0.964646464646465 r_1_1 + 0.964646464646465 r_2_1
           + 0.964646464646465 r_3_1 + 0.964646464646465 r_4_1
           + 0.964646464646465 r_5_1 + 0.964646464646465 r_6_1
           + 0.964646464646465 r_7_1 + 0.964646464646465 r_8_1 >= 5.62
 c1_13:    12.31 r_super + 2 r_1_2 + 2 r_2_2 + 2 r_3_2 + 2 r_4_2 + 2 r_5_2
           + 2 r_6_2 + 2 r_7_2 + 2 r_8_2 + 1.53995348837209 r_1_1
           + 1.53995348837209 r_2_1 + 1.53995348837209 r_3_1
           + 1.53995348837209 r_4_1 + 1.53995348837209 r_5_1
           + 1.53995348837209 r_6_1 + 1.53995348837209 r_7_1
           + 1.53995348837209 r_8_1 + 1.91274418604651 r_1_1
           + 1.91274418604651 r_2_1 + 1.91274418604651 r_3_1
           + 1.91274418604651 r_4_1 + 1.91274418604651 r_5_1
           + 1.91274418604651 r_6_1 + 1.91274418604651 r_7_1
           + 1.91274418604651 r_8_1 >= 11.31
 c2_1_1:   - 1000 w_1_1 + r_super <= 0
 c2_1_2:   - 1000 w_1_2 <= 0
 c2_1_3:   - 1000 w_1_3 <= 0
 c2_1_4:   - 1000 w_1_4 <= 0
 c2_1_5:   - 1000 w_1_5 <= 0
 c2_1_6:   - 1000 w_1_6 + r_1_39 + r_2_39 + r_3_39 + r_4_39 + r_5_39 + r_6_39
           + r_7_39 + r_8_39 + r_1_1 + r_2_1 + r_3_1 + r_4_1 + r_5_1 + r_6_1
           + r_7_1 + r_8_1 + r_1_2 + r_2_2 + r_3_2 + r_4_2 + r_5_2 + r_6_2
           + r_7_2 + r_8_2 + r_1_1 + r_2_1 + r_3_1 + r_4_1 + r_5_1 + r_6_1
           + r_7_1 + r_8_1 + r_1_1 + r_2_1 + r_3_1 + r_4_1 + r_5_1 + r_6_1
           + r_7_1 + r_8_1 <= 0
 c2_1_7:   - 1000 w_1_7 <= 0
 c2_1_8:   - 1000 w_1_8 <= 0
 c2_1_9:   - 1000 w_1_9 <= 0
 c2_1_10:  - 1000 w_1_10 + r_1_2 + r_2_2 + r_3_2 + r_4_2 + r_5_2 + r_6_2
           + r_7_2 + r_8_2 <= 0
 c2_2_1:   - 1000 w_2_1 + r_super <= 0
 c2_2_2:   - 1000 w_2_2 <= 0
 c2_2_3:   - 1000 w_2_3 <= 0
 c2_2_4:   - 1000 w_2_4 <= 0
 c2_2_5:   - 1000 w_2_5 <= 0
 c2_2_6:   - 1000 w_2_6 <= 0
 c2_2_7:   - 1000 w_2_7 <= 0
 c2_2_8:   - 1000 w_2_8 + r_1_27 + r_2_27 + r_3_27 + r_4_27 + r_5_27 + r_6_27
           + r_7_27 + r_8_27 + r_1_2 + r_2_2 + r_3_2 + r_4_2 + r_5_2 + r_6_2
           + r_7_2 + r_8_2 + r_1_1 + r_2_1 + r_3_1 + r_4_1 + r_5_1 + r_6_1
           + r_7_1 + r_8_1 <= 0
 c2_2_9:   - 1000 w_2_9 <= 0
 c2_2_10:  - 1000 w_2_10 + r_1_31 + r_2_31 + r_3_31 + r_4_31 + r_5_31 + r_6_31
           + r_7_31 + r_8_31 + r_1_2 + r_2_2 + r_3_2 + r_4_2 + r_5_2 + r_6_2
           + r_7_2 + r_8_2 <= 0
 c2_3_1:   - 1000 w_3_1 + r_super + r_1_3 + r_2_3 + r_3_3 + r_4_3 + r_5_3
           + r_6_3 + r_7_3 + r_8_3 <= 0
 c2_3_2:   - 1000 w_3_2 + r_1_45 + r_2_45 + r_3_45 + r_4_45 + r_5_45 + r_6_45
           + r_7_45 + r_8_45 <= 0
 c2_3_3:   - 1000 w_3_3 <= 0
 c2_3_4:   - 1000 w_3_4 + r_1_2 + r_2_2 + r_3_2 + r_4_2 + r_5_2 + r_6_2 + r_7_2
           + r_8_2 <= 0
 c2_3_5:   - 1000 w_3_5 <= 0
 c2_3_6:   - 1000 w_3_6 <= 0
 c2_3_7:   - 1000 w_3_7 + r_1_2 + r_2_2 + r_3_2 + r_4_2 + r_5_2 + r_6_2 + r_7_2
           + r_8_2 <= 0
 c2_3_8:   - 1000 w_3_8 <= 0
 c2_3_9:   - 1000 w_3_9 <= 0
 c2_3_10:  - 1000 w_3_10 <= 0
 c2_4_1:   - 1000 w_4_1 + r_super <= 0
 c2_4_2:   - 1000 w_4_2 + r_1_45 + r_2_45 + r_3_45 + r_4_45 + r_5_45 + r_6_45
           + r_7_45 + r_8_45 <= 0
 c2_4_3:   - 1000 w_4_3 + r_1_3 + r_2_3 + r_3_3 + r_4_3 + r_5_3 + r_6_3 + r_7_3
           + r_8_3 + r_1_2 + r_2_2 + r_3_2 + r_4_2 + r_5_2 + r_6_2 + r_7_2
           + r_8_2 <= 0
 c2_4_4:   - 1000 w_4_4 <= 0
 c2_4_5:   - 1000 w_4_5 <= 0
 c2_4_6:   - 1000 w_4_6 + r_1_39 + r_2_39 + r_3_39 + r_4_39 + r_5_39 + r_6_39
           + r_7_39 + r_8_39 + r_1_2 + r_2_2 + r_3_2 + r_4_2 + r_5_2 + r_6_2
           + r_7_2 + r_8_2 <= 0
 c2_4_7:   - 1000 w_4_7 + r_1_2 + r_2_2 + r_3_2 + r_4_2 + r_5_2 + r_6_2 + r_7_2
           + r_8_2 <= 0
 c2_4_8:   - 1000 w_4_8 <= 0
 c2_4_9:   - 1000 w_4_9 + r_1_4 + r_2_4 + r_3_4 + r_4_4 + r_5_4 + r_6_4 + r_7_4
           + r_8_4 <= 0
 c2_4_10:  - 1000 w_4_10 <= 0
 c2_5_1:   - 1000 w_5_1 + r_super <= 0
 c2_5_2:   - 1000 w_5_2 <= 0
 c2_5_3:   - 1000 w_5_3 <= 0
 c2_5_4:   - 1000 w_5_4 <= 0
 c2_5_5:   - 1000 w_5_5 <= 0
 c2_5_6:   - 1000 w_5_6 + r_1_1 + r_2_1 + r_3_1 + r_4_1 + r_5_1 + r_6_1 + r_7_1
           + r_8_1 <= 0
 c2_5_7:   - 1000 w_5_7 <= 0
 c2_5_8:   - 1000 w_5_8 + r_1_2 + r_2_2 + r_3_2 + r_4_2 + r_5_2 + r_6_2 + r_7_2
           + r_8_2 <= 0
 c2_5_9:   - 1000 w_5_9 + r_1_4 + r_2_4 + r_3_4 + r_4_4 + r_5_4 + r_6_4 + r_7_4
           + r_8_4 <= 0
 c2_5_10:  - 1000 w_5_10 <= 0
 c2_6_1:   - 1000 w_6_1 + r_super + r_1_9 + r_2_9 + r_3_9 + r_4_9 + r_5_9
           + r_6_9 + r_7_9 + r_8_9 + r_1_3 + r_2_3 + r_3_3 + r_4_3 + r_5_3
           + r_6_3 + r_7_3 + r_8_3 + r_1_3 + r_2_3 + r_3_3 + r_4_3 + r_5_3
           + r_6_3 + r_7_3 + r_8_3 + r_1_1 + r_2_1 + r_3_1 + r_4_1 + r_5_1
           + r_6_1 + r_7_1 + r_8_1 + r_1_2 + r_2_2 + r_3_2 + r_4_2 + r_5_2
           + r_6_2 + r_7_2 + r_8_2 <= 0
 c2_6_2:   - 1000 w_6_2 <= 0
 c2_6_3:   - 1000 w_6_3 <= 0
 c2_6_4:   - 1000 w_6_4 <= 0
 c2_6_5:   - 1000 w_6_5 <= 0
 c2_6_6:   - 1000 w_6_6 <= 0
 c2_6_7:   - 1000 w_6_7 <= 0
 c2_6_8:   - 1000 w_6_8 <= 0
 c2_6_9:   - 1000 w_6_9 <= 0
 c2_6_10:  - 1000 w_6_10 <= 0
 c2_7_1:   - 1000 w_7_1 + r_super <= 0
 c2_7_2:   - 1000 w_7_2 <= 0
 c2_7_3:   - 1000 w_7_3 <= 0
 c2_7_4:   - 1000 w_7_4 <= 0
 c2_7_5:   - 1000 w_7_5 <= 0
 c2_7_6:   - 1000 w_7_6 <= 0
 c2_7_7:   - 1000 w_7_7 <= 0
 c2_7_8:   - 1000 w_7_8 <= 0
 c2_7_9:   - 1000 w_7_9 + r_1_28 + r_2_28 + r_3_28 + r_4_28 + r_5_28 + r_6_28
           + r_7_28 + r_8_28 + r_1_1 + r_2_1 + r_3_1 + r_4_1 + r_5_1 + r_6_1
           + r_7_1 + r_8_1 + r_1_2 + r_2_2 + r_3_2 + r_4_2 + r_5_2 + r_6_2
           + r_7_2 + r_8_2 + r_1_4 + r_2_4 + r_3_4 + r_4_4 + r_5_4 + r_6_4
           + r_7_4 + r_8_4 + r_1_5 + r_2_5 + r_3_5 + r_4_5 + r_5_5 + r_6_5
           + r_7_5 + r_8_5 + r_1_4 + r_2_4 + r_3_4 + r_4_4 + r_5_4 + r_6_4
           + r_7_4 + r_8_4 <= 0
 c2_7_10:  - 1000 w_7_10 <= 0
 c2_8_1:   - 1000 w_8_1 + r_super <= 0
 c2_8_2:   - 1000 w_8_2 <= 0
 c2_8_3:   - 1000 w_8_3 + r_1_3 + r_2_3 + r_3_3 + r_4_3 + r_5_3 + r_6_3 + r_7_3
           + r_8_3 + r_1_2 + r_2_2 + r_3_2 + r_4_2 + r_5_2 + r_6_2 + r_7_2
           + r_8_2 <= 0
 c2_8_4:   - 1000 w_8_4 <= 0
 c2_8_5:   - 1000 w_8_5 + r_1_1 + r_2_1 + r_3_1 + r_4_1 + r_5_1 + r_6_1 + r_7_1
           + r_8_1 <= 0
 c2_8_6:   - 1000 w_8_6 <= 0
 c2_8_7:   - 1000 w_8_7 <= 0
 c2_8_8:   - 1000 w_8_8 <= 0
 c2_8_9:   - 1000 w_8_9 <= 0
 c2_8_10:  - 1000 w_8_10 <= 0
 c2_9_1:   - 1000 w_9_1 + r_super <= 0
 c2_9_2:   - 1000 w_9_2 <= 0
 c2_9_3:   - 1000 w_9_3 <= 0
 c2_9_4:   - 1000 w_9_4 + r_1_2 + r_2_2 + r_3_2 + r_4_2 + r_5_2 + r_6_2 + r_7_2
           + r_8_2 + r_1_1 + r_2_1 + r_3_1 + r_4_1 + r_5_1 + r_6_1 + r_7_1
           + r_8_1 + r_1_3 + r_2_3 + r_3_3 + r_4_3 + r_5_3 + r_6_3 + r_7_3
           + r_8_3 + r_1_2 + r_2_2 + r_3_2 + r_4_2 + r_5_2 + r_6_2 + r_7_2
           + r_8_2 <= 0
 c2_9_5:   - 1000 w_9_5 <= 0
 c2_9_6:   - 1000 w_9_6 <= 0
 c2_9_7:   - 1000 w_9_7 <= 0
 c2_9_8:   - 1000 w_9_8 <= 0
 c2_9_9:   - 1000 w_9_9 + r_1_1 + r_2_1 + r_3_1 + r_4_1 + r_5_1 + r_6_1 + r_7_1
           + r_8_1 <= 0
 c2_9_10:  - 1000 w_9_10 <= 0
 c2_10_1:  - 1000 w_10_1 + r_super + r_1_2 + r_2_2 + r_3_2 + r_4_2 + r_5_2
           + r_6_2 + r_7_2 + r_8_2 <= 0
 c2_10_2:  - 1000 w_10_2 <= 0
 c2_10_3:  - 1000 w_10_3 <= 0
 c2_10_4:  - 1000 w_10_4 + r_1_1 + r_2_1 + r_3_1 + r_4_1 + r_5_1 + r_6_1
           + r_7_1 + r_8_1 <= 0
 c2_10_5:  - 1000 w_10_5 + r_1_43 + r_2_43 + r_3_43 + r_4_43 + r_5_43 + r_6_43
           + r_7_43 + r_8_43 + r_1_4 + r_2_4 + r_3_4 + r_4_4 + r_5_4 + r_6_4
           + r_7_4 + r_8_4 + r_1_1 + r_2_1 + r_3_1 + r_4_1 + r_5_1 + r_6_1
           + r_7_1 + r_8_1 <= 0
 c2_10_6:  - 1000 w_10_6 <= 0
 c2_10_7:  - 1000 w_10_7 <= 0
 c2_10_8:  - 1000 w_10_8 <= 0
 c2_10_9:  - 1000 w_10_9 <= 0
 c2_10_10: - 1000 w_10_10 <= 0
 c2_11_1:  - 1000 w_11_1 + r_super + r_1_3 + r_2_3 + r_3_3 + r_4_3 + r_5_3
           + r_6_3 + r_7_3 + r_8_3 <= 0
 c2_11_2:  - 1000 w_11_2 <= 0
 c2_11_3:  - 1000 w_11_3 <= 0
 c2_11_4:  - 1000 w_11_4 + r_1_3 + r_2_3 + r_3_3 + r_4_3 + r_5_3 + r_6_3
           + r_7_3 + r_8_3 <= 0
 c2_11_5:  - 1000 w_11_5 <= 0
 c2_11_6:  - 1000 w_11_6 <= 0
 c2_11_7:  - 1000 w_11_7 <= 0
 c2_11_8:  - 1000 w_11_8 + r_1_1 + r_2_1 + r_3_1 + r_4_1 + r_5_1 + r_6_1
           + r_7_1 + r_8_1 <= 0
 c2_11_9:  - 1000 w_11_9 <= 0
 c2_11_10: - 1000 w_11_10 <= 0
 c2_12_1:  - 1000 w_12_1 + r_super <= 0
 c2_12_2:  - 1000 w_12_2 <= 0
 c2_12_3:  - 1000 w_12_3 <= 0
 c2_12_4:  - 1000 w_12_4 <= 0
 c2_12_5:  - 1000 w_12_5 + r_1_4 + r_2_4 + r_3_4 + r_4_4 + r_5_4 + r_6_4
           + r_7_4 + r_8_4 <= 0
 c2_12_6:  - 1000 w_12_6 + r_1_1 + r_2_1 + r_3_1 + r_4_1 + r_5_1 + r_6_1
           + r_7_1 + r_8_1 <= 0
 c2_12_7:  - 1000 w_12_7 <= 0
 c2_12_8:  - 1000 w_12_8 <= 0
 c2_12_9:  - 1000 w_12_9 + r_1_5 + r_2_5 + r_3_5 + r_4_5 + r_5_5 + r_6_5
           + r_7_5 + r_8_5 <= 0
 c2_12_10: - 1000 w_12_10 <= 0
 c2_13_1:  - 1000 w_13_1 + r_super + r_1_1 + r_2_1 + r_3_1 + r_4_1 + r_5_1
           + r_6_1 + r_7_1 + r_8_1 <= 0
 c2_13_2:  - 1000 w_13_2 <= 0
 c2_13_3:  - 1000 w_13_3 <= 0
 c2_13_4:  - 1000 w_13_4 <= 0
 c2_13_5:  - 1000 w_13_5 <= 0
 c2_13_6:  - 1000 w_13_6 + r_1_1 + r_2_1 + r_3_1 + r_4_1 + r_5_1 + r_6_1
           + r_7_1 + r_8_1 <= 0
 c2_13_7:  - 1000 w_13_7 <= 0
 c2_13_8:  - 1000 w_13_8 <= 0
 c2_13_9:  - 1000 w_13_9 + r_1_2 + r_2_2 + r_3_2 + r_4_2 + r_5_2 + r_6_2
           + r_7_2 + r_8_2 <= 0
 c2_13_10: - 1000 w_13_10 <= 0
 c3_1:     w_1_1 + w_1_2 + w_1_3 + w_1_4 + w_1_5 + w_1_6 + w_1_7 + w_1_8
           + w_1_9 + w_1_10 <= 3
 c3_2:     w_2_1 + w_2_2 + w_2_3 + w_2_4 + w_2_5 + w_2_6 + w_2_7 + w_2_8
           + w_2_9 + w_2_10 <= 3
 c3_3:     w_3_1 + w_3_2 + w_3_3 + w_3_4 + w_3_5 + w_3_6 + w_3_7 + w_3_8
           + w_3_9 + w_3_10 <= 3
 c3_4:     w_4_1 + w_4_2 + w_4_3 + w_4_4 + w_4_5 + w_4_6 + w_4_7 + w_4_8
           + w_4_9 + w_4_10 <= 3
 c3_5:     w_5_1 + w_5_2 + w_5_3 + w_5_4 + w_5_5 + w_5_6 + w_5_7 + w_5_8
           + w_5_9 + w_5_10 <= 3
 c3_6:     w_6_1 + w_6_2 + w_6_3 + w_6_4 + w_6_5 + w_6_6 + w_6_7 + w_6_8
           + w_6_9 + w_6_10 <= 3
 c3_7:     w_7_1 + w_7_2 + w_7_3 + w_7_4 + w_7_5 + w_7_6 + w_7_7 + w_7_8
           + w_7_9 + w_7_10 <= 3
 c3_8:     w_8_1 + w_8_2 + w_8_3 + w_8_4 + w_8_5 + w_8_6 + w_8_7 + w_8_8
           + w_8_9 + w_8_10 <= 3
 c3_9:     w_9_1 + w_9_2 + w_9_3 + w_9_4 + w_9_5 + w_9_6 + w_9_7 + w_9_8
           + w_9_9 + w_9_10 <= 3
 c3_10:    w_10_1 + w_10_2 + w_10_3 + w_10_4 + w_10_5 + w_10_6 + w_10_7
           + w_10_8 + w_10_9 + w_10_10 <= 3
 c3_11:    w_11_1 + w_11_2 + w_11_3 + w_11_4 + w_11_5 + w_11_6 + w_11_7
           + w_11_8 + w_11_9 + w_11_10 <= 3
 c3_12:    w_12_1 + w_12_2 + w_12_3 + w_12_4 + w_12_5 + w_12_6 + w_12_7
           + w_12_8 + w_12_9 + w_12_10 <= 3
 c3_13:    w_13_1 + w_13_2 + w_13_3 + w_13_4 + w_13_5 + w_13_6 + w_13_7
           + w_13_8 + w_13_9 + w_13_10 <= 3
 c4_1_1:   r_super + r_1_9 + r_1_3 + r_1_3 + r_1_1 + r_1_2 <= 1
 c4_1_2:   r_1_45 <= 1
 c4_1_3:   r_1_3 + r_1_2 <= 1
 c4_1_4:   r_1_2 + r_1_1 + r_1_3 + r_1_2 <= 1
 c4_1_5:   r_1_43 + r_1_4 + r_1_1 <= 1
 c4_1_6:   r_1_39 + r_1_1 + r_1_2 + r_1_1 + r_1_1 <= 1
 c4_1_7:   r_1_2 <= 1
 c4_1_8:   r_1_27 + r_1_2 + r_1_1 <= 1
 c4_1_9:   r_1_28 + r_1_1 + r_1_2 + r_1_4 + r_1_5 + r_1_4 <= 1
 c4_1_10:  r_1_31 + r_1_2 <= 1
 c4_2_1:   r_super + r_2_9 + r_2_3 + r_2_3 + r_2_1 + r_2_2 <= 1
 c4_2_2:   r_2_45 <= 1
 c4_2_3:   r_2_3 + r_2_2 <= 1
 c4_2_4:   r_2_2 + r_2_1 + r_2_3 + r_2_2 <= 1
 c4_2_5:   r_2_43 + r_2_4 + r_2_1 <= 1
 c4_2_6:   r_2_39 + r_2_1 + r_2_2 + r_2_1 + r_2_1 <= 1
 c4_2_7:   r_2_2 <= 1
 c4_2_8:   r_2_27 + r_2_2 + r_2_1 <= 1
 c4_2_9:   r_2_28 + r_2_1 + r_2_2 + r_2_4 + r_2_5 + r_2_4 <= 1
 c4_2_10:  r_2_31 + r_2_2 <= 1
 c4_3_1:   r_super + r_3_9 + r_3_3 + r_3_3 + r_3_1 + r_3_2 <= 1
 c4_3_2:   r_3_45 <= 1
 c4_3_3:   r_3_3 + r_3_2 <= 1
 c4_3_4:   r_3_2 + r_3_1 + r_3_3 + r_3_2 <= 1
 c4_3_5:   r_3_43 + r_3_4 + r_3_1 <= 1
 c4_3_6:   r_3_39 + r_3_1 + r_3_2 + r_3_1 + r_3_1 <= 1
 c4_3_7:   r_3_2 <= 1
 c4_3_8:   r_3_27 + r_3_2 + r_3_1 <= 1
 c4_3_9:   r_3_28 + r_3_1 + r_3_2 + r_3_4 + r_3_5 + r_3_4 <= 1
 c4_3_10:  r_3_31 + r_3_2 <= 1
 c4_4_1:   r_super + r_4_9 + r_4_3 + r_4_3 + r_4_1 + r_4_2 <= 1
 c4_4_2:   r_4_45 <= 1
 c4_4_3:   r_4_3 + r_4_2 <= 1
 c4_4_4:   r_4_2 + r_4_1 + r_4_3 + r_4_2 <= 1
 c4_4_5:   r_4_43 + r_4_4 + r_4_1 <= 1
 c4_4_6:   r_4_39 + r_4_1 + r_4_2 + r_4_1 + r_4_1 <= 1
 c4_4_7:   r_4_2 <= 1
 c4_4_8:   r_4_27 + r_4_2 + r_4_1 <= 1
 c4_4_9:   r_4_28 + r_4_1 + r_4_2 + r_4_4 + r_4_5 + r_4_4 <= 1
 c4_4_10:  r_4_31 + r_4_2 <= 1
 c4_5_1:   r_super + r_5_9 + r_5_3 + r_5_3 + r_5_1 + r_5_2 <= 1
 c4_5_2:   r_5_45 <= 1
 c4_5_3:   r_5_3 + r_5_2 <= 1
 c4_5_4:   r_5_2 + r_5_1 + r_5_3 + r_5_2 <= 1
 c4_5_5:   r_5_43 + r_5_4 + r_5_1 <= 1
 c4_5_6:   r_5_39 + r_5_1 + r_5_2 + r_5_1 + r_5_1 <= 1
 c4_5_7:   r_5_2 <= 1
 c4_5_8:   r_5_27 + r_5_2 + r_5_1 <= 1
 c4_5_9:   r_5_28 + r_5_1 + r_5_2 + r_5_4 + r_5_5 + r_5_4 <= 1
 c4_5_10:  r_5_31 + r_5_2 <= 1
 c4_6_1:   r_super + r_6_9 + r_6_3 + r_6_3 + r_6_1 + r_6_2 <= 1
 c4_6_2:   r_6_45 <= 1
 c4_6_3:   r_6_3 + r_6_2 <= 1
 c4_6_4:   r_6_2 + r_6_1 + r_6_3 + r_6_2 <= 1
 c4_6_5:   r_6_43 + r_6_4 + r_6_1 <= 1
 c4_6_6:   r_6_39 + r_6_1 + r_6_2 + r_6_1 + r_6_1 <= 1
 c4_6_7:   r_6_2 <= 1
 c4_6_8:   r_6_27 + r_6_2 + r_6_1 <= 1
 c4_6_9:   r_6_28 + r_6_1 + r_6_2 + r_6_4 + r_6_5 + r_6_4 <= 1
 c4_6_10:  r_6_31 + r_6_2 <= 1
 c4_7_1:   r_super + r_7_9 + r_7_3 + r_7_3 + r_7_1 + r_7_2 <= 1
 c4_7_2:   r_7_45 <= 1
 c4_7_3:   r_7_3 + r_7_2 <= 1
 c4_7_4:   r_7_2 + r_7_1 + r_7_3 + r_7_2 <= 1
 c4_7_5:   r_7_43 + r_7_4 + r_7_1 <= 1
 c4_7_6:   r_7_39 + r_7_1 + r_7_2 + r_7_1 + r_7_1 <= 1
 c4_7_7:   r_7_2 <= 1
 c4_7_8:   r_7_27 + r_7_2 + r_7_1 <= 1
 c4_7_9:   r_7_28 + r_7_1 + r_7_2 + r_7_4 + r_7_5 + r_7_4 <= 1
 c4_7_10:  r_7_31 + r_7_2 <= 1
 c4_8_1:   r_super + r_8_9 + r_8_3 + r_8_3 + r_8_1 + r_8_2 <= 1
 c4_8_2:   r_8_45 <= 1
 c4_8_3:   r_8_3 + r_8_2 <= 1
 c4_8_4:   r_8_2 + r_8_1 + r_8_3 + r_8_2 <= 1
 c4_8_5:   r_8_43 + r_8_4 + r_8_1 <= 1
 c4_8_6:   r_8_39 + r_8_1 + r_8_2 + r_8_1 + r_8_1 <= 1
 c4_8_7:   r_8_2 <= 1
 c4_8_8:   r_8_27 + r_8_2 + r_8_1 <= 1
 c4_8_9:   r_8_28 + r_8_1 + r_8_2 + r_8_4 + r_8_5 + r_8_4 <= 1
 c4_8_10:  r_8_31 + r_8_2 <= 1
 c5_1:     - z + r_super + r_1_9 + r_2_9 + r_3_9 + r_4_9 + r_5_9 + r_6_9
           + r_7_9 + r_8_9 + r_1_3 + r_2_3 + r_3_3 + r_4_3 + r_5_3 + r_6_3
           + r_7_3 + r_8_3 + r_1_3 + r_2_3 + r_3_3 + r_4_3 + r_5_3 + r_6_3
           + r_7_3 + r_8_3 + r_1_1 + r_2_1 + r_3_1 + r_4_1 + r_5_1 + r_6_1
           + r_7_1 + r_8_1 + r_1_2 + r_2_2 + r_3_2 + r_4_2 + r_5_2 + r_6_2
           + r_7_2 + r_8_2 <= 0
 c5_2:     - z + r_1_45 + r_2_45 + r_3_45 + r_4_45 + r_5_45 + r_6_45 + r_7_45
           + r_8_45 <= 0
 c5_3:     - z + r_1_3 + r_2_3 + r_3_3 + r_4_3 + r_5_3 + r_6_3 + r_7_3 + r_8_3
           + r_1_2 + r_2_2 + r_3_2 + r_4_2 + r_5_2 + r_6_2 + r_7_2 + r_8_2 <= 0
 c5_4:     - z + r_1_2 + r_2_2 + r_3_2 + r_4_2 + r_5_2 + r_6_2 + r_7_2 + r_8_2
           + r_1_1 + r_2_1 + r_3_1 + r_4_1 + r_5_1 + r_6_1 + r_7_1 + r_8_1
           + r_1_3 + r_2_3 + r_3_3 + r_4_3 + r_5_3 + r_6_3 + r_7_3 + r_8_3
           + r_1_2 + r_2_2 + r_3_2 + r_4_2 + r_5_2 + r_6_2 + r_7_2 + r_8_2 <= 0
 c5_5:     - z + r_1_43 + r_2_43 + r_3_43 + r_4_43 + r_5_43 + r_6_43 + r_7_43
           + r_8_43 + r_1_4 + r_2_4 + r_3_4 + r_4_4 + r_5_4 + r_6_4 + r_7_4
           + r_8_4 + r_1_1 + r_2_1 + r_3_1 + r_4_1 + r_5_1 + r_6_1 + r_7_1
           + r_8_1 <= 0
 c5_6:     - z + r_1_39 + r_2_39 + r_3_39 + r_4_39 + r_5_39 + r_6_39 + r_7_39
           + r_8_39 + r_1_1 + r_2_1 + r_3_1 + r_4_1 + r_5_1 + r_6_1 + r_7_1
           + r_8_1 + r_1_2 + r_2_2 + r_3_2 + r_4_2 + r_5_2 + r_6_2 + r_7_2
           + r_8_2 + r_1_1 + r_2_1 + r_3_1 + r_4_1 + r_5_1 + r_6_1 + r_7_1
           + r_8_1 + r_1_1 + r_2_1 + r_3_1 + r_4_1 + r_5_1 + r_6_1 + r_7_1
           + r_8_1 <= 0
 c5_7:     - z + r_1_2 + r_2_2 + r_3_2 + r_4_2 + r_5_2 + r_6_2 + r_7_2 + r_8_2
           <= 0
 c5_8:     - z + r_1_27 + r_2_27 + r_3_27 + r_4_27 + r_5_27 + r_6_27 + r_7_27
           + r_8_27 + r_1_2 + r_2_2 + r_3_2 + r_4_2 + r_5_2 + r_6_2 + r_7_2
           + r_8_2 + r_1_1 + r_2_1 + r_3_1 + r_4_1 + r_5_1 + r_6_1 + r_7_1
           + r_8_1 <= 0
 c5_9:     - z + r_1_28 + r_2_28 + r_3_28 + r_4_28 + r_5_28 + r_6_28 + r_7_28
           + r_8_28 + r_1_1 + r_2_1 + r_3_1 + r_4_1 + r_5_1 + r_6_1 + r_7_1
           + r_8_1 + r_1_2 + r_2_2 + r_3_2 + r_4_2 + r_5_2 + r_6_2 + r_7_2
           + r_8_2 + r_1_4 + r_2_4 + r_3_4 + r_4_4 + r_5_4 + r_6_4 + r_7_4
           + r_8_4 + r_1_5 + r_2_5 + r_3_5 + r_4_5 + r_5_5 + r_6_5 + r_7_5
           + r_8_5 + r_1_4 + r_2_4 + r_3_4 + r_4_4 + r_5_4 + r_6_4 + r_7_4
           + r_8_4 <= 0
 c5_10:    - z + r_1_31 + r_2_31 + r_3_31 + r_4_31 + r_5_31 + r_6_31 + r_7_31
           + r_8_31 + r_1_2 + r_2_2 + r_3_2 + r_4_2 + r_5_2 + r_6_2 + r_7_2
           + r_8_2 <= 0
Bounds
 0 <= w_1_1 <= 1
 0 <= w_1_2 <= 1
 0 <= w_1_3 <= 1
 0 <= w_1_4 <= 1
 0 <= w_1_5 <= 1
 0 <= w_1_6 <= 1
 0 <= w_1_7 <= 1
 0 <= w_1_8 <= 1
 0 <= w_1_9 <= 1
 0 <= w_1_10 <= 1
 0 <= w_2_1 <= 1
 0 <= w_2_2 <= 1
 0 <= w_2_3 <= 1
 0 <= w_2_4 <= 1
 0 <= w_2_5 <= 1
 0 <= w_2_6 <= 1
 0 <= w_2_7 <= 1
 0 <= w_2_8 <= 1
 0 <= w_2_9 <= 1
 0 <= w_2_10 <= 1
 0 <= w_3_1 <= 1
 0 <= w_3_2 <= 1
 0 <= w_3_3 <= 1
 0 <= w_3_4 <= 1
 0 <= w_3_5 <= 1
 0 <= w_3_6 <= 1
 0 <= w_3_7 <= 1
 0 <= w_3_8 <= 1
 0 <= w_3_9 <= 1
 0 <= w_3_10 <= 1
 0 <= w_4_1 <= 1
 0 <= w_4_2 <= 1
 0 <= w_4_3 <= 1
 0 <= w_4_4 <= 1
 0 <= w_4_5 <= 1
 0 <= w_4_6 <= 1
 0 <= w_4_7 <= 1
 0 <= w_4_8 <= 1
 0 <= w_4_9 <= 1
 0 <= w_4_10 <= 1
 0 <= w_5_1 <= 1
 0 <= w_5_2 <= 1
 0 <= w_5_3 <= 1
 0 <= w_5_4 <= 1
 0 <= w_5_5 <= 1
 0 <= w_5_6 <= 1
 0 <= w_5_7 <= 1
 0 <= w_5_8 <= 1
 0 <= w_5_9 <= 1
 0 <= w_5_10 <= 1
 0 <= w_6_1 <= 1
 0 <= w_6_2 <= 1
 0 <= w_6_3 <= 1
 0 <= w_6_4 <= 1
 0 <= w_6_5 <= 1
 0 <= w_6_6 <= 1
 0 <= w_6_7 <= 1
 0 <= w_6_8 <= 1
 0 <= w_6_9 <= 1
 0 <= w_6_10 <= 1
 0 <= w_7_1 <= 1
 0 <= w_7_2 <= 1
 0 <= w_7_3 <= 1
 0 <= w_7_4 <= 1
 0 <= w_7_5 <= 1
 0 <= w_7_6 <= 1
 0 <= w_7_7 <= 1
 0 <= w_7_8 <= 1
 0 <= w_7_9 <= 1
 0 <= w_7_10 <= 1
 0 <= w_8_1 <= 1
 0 <= w_8_2 <= 1
 0 <= w_8_3 <= 1
 0 <= w_8_4 <= 1
 0 <= w_8_5 <= 1
 0 <= w_8_6 <= 1
 0 <= w_8_7 <= 1
 0 <= w_8_8 <= 1
 0 <= w_8_9 <= 1
 0 <= w_8_10 <= 1
 0 <= w_9_1 <= 1
 0 <= w_9_2 <= 1
 0 <= w_9_3 <= 1
 0 <= w_9_4 <= 1
 0 <= w_9_5 <= 1
 0 <= w_9_6 <= 1
 0 <= w_9_7 <= 1
 0 <= w_9_8 <= 1
 0 <= w_9_9 <= 1
 0 <= w_9_10 <= 1
 0 <= w_10_1 <= 1
 0 <= w_10_2 <= 1
 0 <= w_10_3 <= 1
 0 <= w_10_4 <= 1
 0 <= w_10_5 <= 1
 0 <= w_10_6 <= 1
 0 <= w_10_7 <= 1
 0 <= w_10_8 <= 1
 0 <= w_10_9 <= 1
 0 <= w_10_10 <= 1
 0 <= w_11_1 <= 1
 0 <= w_11_2 <= 1
 0 <= w_11_3 <= 1
 0 <= w_11_4 <= 1
 0 <= w_11_5 <= 1
 0 <= w_11_6 <= 1
 0 <= w_11_7 <= 1
 0 <= w_11_8 <= 1
 0 <= w_11_9 <= 1
 0 <= w_11_10 <= 1
 0 <= w_12_1 <= 1
 0 <= w_12_2 <= 1
 0 <= w_12_3 <= 1
 0 <= w_12_4 <= 1
 0 <= w_12_5 <= 1
 0 <= w_12_6 <= 1
 0 <= w_12_7 <= 1
 0 <= w_12_8 <= 1
 0 <= w_12_9 <= 1
 0 <= w_12_10 <= 1
 0 <= w_13_1 <= 1
 0 <= w_13_2 <= 1
 0 <= w_13_3 <= 1
 0 <= w_13_4 <= 1
 0 <= w_13_5 <= 1
 0 <= w_13_6 <= 1
 0 <= w_13_7 <= 1
 0 <= w_13_8 <= 1
 0 <= w_13_9 <= 1
 0 <= w_13_10 <= 1
 0 <= r_super <= 1
 0 <= r_1_9 <= 1
 0 <= r_2_9 <= 1
 0 <= r_3_9 <= 1
 0 <= r_4_9 <= 1
 0 <= r_5_9 <= 1
 0 <= r_6_9 <= 1
 0 <= r_7_9 <= 1
 0 <= r_8_9 <= 1
 0 <= r_1_27 <= 1
 0 <= r_2_27 <= 1
 0 <= r_3_27 <= 1
 0 <= r_4_27 <= 1
 0 <= r_5_27 <= 1
 0 <= r_6_27 <= 1
 0 <= r_7_27 <= 1
 0 <= r_8_27 <= 1
 0 <= r_1_28 <= 1
 0 <= r_2_28 <= 1
 0 <= r_3_28 <= 1
 0 <= r_4_28 <= 1
 0 <= r_5_28 <= 1
 0 <= r_6_28 <= 1
 0 <= r_7_28 <= 1
 0 <= r_8_28 <= 1
 0 <= r_1_31 <= 1
 0 <= r_2_31 <= 1
 0 <= r_3_31 <= 1
 0 <= r_4_31 <= 1
 0 <= r_5_31 <= 1
 0 <= r_6_31 <= 1
 0 <= r_7_31 <= 1
 0 <= r_8_31 <= 1
 0 <= r_1_39 <= 1
 0 <= r_2_39 <= 1
 0 <= r_3_39 <= 1
 0 <= r_4_39 <= 1
 0 <= r_5_39 <= 1
 0 <= r_6_39 <= 1
 0 <= r_7_39 <= 1
 0 <= r_8_39 <= 1
 0 <= r_1_43 <= 1
 0 <= r_2_43 <= 1
 0 <= r_3_43 <= 1
 0 <= r_4_43 <= 1
 0 <= r_5_43 <= 1
 0 <= r_6_43 <= 1
 0 <= r_7_43 <= 1
 0 <= r_8_43 <= 1
 0 <= r_1_45 <= 1
 0 <= r_2_45 <= 1
 0 <= r_3_45 <= 1
 0 <= r_4_45 <= 1
 0 <= r_5_45 <= 1
 0 <= r_6_45 <= 1
 0 <= r_7_45 <= 1
 0 <= r_8_45 <= 1
 0 <= r_1_1 <= 1
 0 <= r_2_1 <= 1
 0 <= r_3_1 <= 1
 0 <= r_4_1 <= 1
 0 <= r_5_1 <= 1
 0 <= r_6_1 <= 1
 0 <= r_7_1 <= 1
 0 <= r_8_1 <= 1
 0 <= r_1_2 <= 1
 0 <= r_2_2 <= 1
 0 <= r_3_2 <= 1
 0 <= r_4_2 <= 1
 0 <= r_5_2 <= 1
 0 <= r_6_2 <= 1
 0 <= r_7_2 <= 1
 0 <= r_8_2 <= 1
 0 <= r_1_4 <= 1
 0 <= r_2_4 <= 1
 0 <= r_3_4 <= 1
 0 <= r_4_4 <= 1
 0 <= r_5_4 <= 1
 0 <= r_6_4 <= 1
 0 <= r_7_4 <= 1
 0 <= r_8_4 <= 1
 0 <= r_1_2 <= 1
 0 <= r_2_2 <= 1
 0 <= r_3_2 <= 1
 0 <= r_4_2 <= 1
 0 <= r_5_2 <= 1
 0 <= r_6_2 <= 1
 0 <= r_7_2 <= 1
 0 <= r_8_2 <= 1
 0 <= r_1_2 <= 1
 0 <= r_2_2 <= 1
 0 <= r_3_2 <= 1
 0 <= r_4_2 <= 1
 0 <= r_5_2 <= 1
 0 <= r_6_2 <= 1
 0 <= r_7_2 <= 1
 0 <= r_8_2 <= 1
 0 <= r_1_5 <= 1
 0 <= r_2_5 <= 1
 0 <= r_3_5 <= 1
 0 <= r_4_5 <= 1
 0 <= r_5_5 <= 1
 0 <= r_6_5 <= 1
 0 <= r_7_5 <= 1
 0 <= r_8_5 <= 1
 0 <= r_1_4 <= 1
 0 <= r_2_4 <= 1
 0 <= r_3_4 <= 1
 0 <= r_4_4 <= 1
 0 <= r_5_4 <= 1
 0 <= r_6_4 <= 1
 0 <= r_7_4 <= 1
 0 <= r_8_4 <= 1
 0 <= r_1_1 <= 1
 0 <= r_2_1 <= 1
 0 <= r_3_1 <= 1
 0 <= r_4_1 <= 1
 0 <= r_5_1 <= 1
 0 <= r_6_1 <= 1
 0 <= r_7_1 <= 1
 0 <= r_8_1 <= 1
 0 <= r_1_3 <= 1
 0 <= r_2_3 <= 1
 0 <= r_3_3 <= 1
 0 <= r_4_3 <= 1
 0 <= r_5_3 <= 1
 0 <= r_6_3 <= 1
 0 <= r_7_3 <= 1
 0 <= r_8_3 <= 1
 0 <= r_1_4 <= 1
 0 <= r_2_4 <= 1
 0 <= r_3_4 <= 1
 0 <= r_4_4 <= 1
 0 <= r_5_4 <= 1
 0 <= r_6_4 <= 1
 0 <= r_7_4 <= 1
 0 <= r_8_4 <= 1
 0 <= r_1_2 <= 1
 0 <= r_2_2 <= 1
 0 <= r_3_2 <= 1
 0 <= r_4_2 <= 1
 0 <= r_5_2 <= 1
 0 <= r_6_2 <= 1
 0 <= r_7_2 <= 1
 0 <= r_8_2 <= 1
 0 <= r_1_1 <= 1
 0 <= r_2_1 <= 1
 0 <= r_3_1 <= 1
 0 <= r_4_1 <= 1
 0 <= r_5_1 <= 1
 0 <= r_6_1 <= 1
 0 <= r_7_1 <= 1
 0 <= r_8_1 <= 1
 0 <= r_1_2 <= 1
 0 <= r_2_2 <= 1
 0 <= r_3_2 <= 1
 0 <= r_4_2 <= 1
 0 <= r_5_2 <= 1
 0 <= r_6_2 <= 1
 0 <= r_7_2 <= 1
 0 <= r_8_2 <= 1
 0 <= r_1_2 <= 1
 0 <= r_2_2 <= 1
 0 <= r_3_2 <= 1
 0 <= r_4_2 <= 1
 0 <= r_5_2 <= 1
 0 <= r_6_2 <= 1
 0 <= r_7_2 <= 1
 0 <= r_8_2 <= 1
 0 <= r_1_3 <= 1
 0 <= r_2_3 <= 1
 0 <= r_3_3 <= 1
 0 <= r_4_3 <= 1
 0 <= r_5_3 <= 1
 0 <= r_6_3 <= 1
 0 <= r_7_3 <= 1
 0 <= r_8_3 <= 1
 0 <= r_1_1 <= 1
 0 <= r_2_1 <= 1
 0 <= r_3_1 <= 1
 0 <= r_4_1 <= 1
 0 <= r_5_1 <= 1
 0 <= r_6_1 <= 1
 0 <= r_7_1 <= 1
 0 <= r_8_1 <= 1
 0 <= r_1_3 <= 1
 0 <= r_2_3 <= 1
 0 <= r_3_3 <= 1
 0 <= r_4_3 <= 1
 0 <= r_5_3 <= 1
 0 <= r_6_3 <= 1
 0 <= r_7_3 <= 1
 0 <= r_8_3 <= 1
 0 <= r_1_1 <= 1
 0 <= r_2_1 <= 1
 0 <= r_3_1 <= 1
 0 <= r_4_1 <= 1
 0 <= r_5_1 <= 1
 0 <= r_6_1 <= 1
 0 <= r_7_1 <= 1
 0 <= r_8_1 <= 1
 0 <= r_1_3 <= 1
 0 <= r_2_3 <= 1
 0 <= r_3_3 <= 1
 0 <= r_4_3 <= 1
 0 <= r_5_3 <= 1
 0 <= r_6_3 <= 1
 0 <= r_7_3 <= 1
 0 <= r_8_3 <= 1
 0 <= r_1_1 <= 1
 0 <= r_2_1 <= 1
 0 <= r_3_1 <= 1
 0 <= r_4_1 <= 1
 0 <= r_5_1 <= 1
 0 <= r_6_1 <= 1
 0 <= r_7_1 <= 1
 0 <= r_8_1 <= 1
 0 <= r_1_2 <= 1
 0 <= r_2_2 <= 1
 0 <= r_3_2 <= 1
 0 <= r_4_2 <= 1
 0 <= r_5_2 <= 1
 0 <= r_6_2 <= 1
 0 <= r_7_2 <= 1
 0 <= r_8_2 <= 1
 0 <= r_1_1 <= 1
 0 <= r_2_1 <= 1
 0 <= r_3_1 <= 1
 0 <= r_4_1 <= 1
 0 <= r_5_1 <= 1
 0 <= r_6_1 <= 1
 0 <= r_7_1 <= 1
 0 <= r_8_1 <= 1
 0 <= r_1_2 <= 1
 0 <= r_2_2 <= 1
 0 <= r_3_2 <= 1
 0 <= r_4_2 <= 1
 0 <= r_5_2 <= 1
 0 <= r_6_2 <= 1
 0 <= r_7_2 <= 1
 0 <= r_8_2 <= 1
 0 <= r_1_1 <= 1
 0 <= r_2_1 <= 1
 0 <= r_3_1 <= 1
 0 <= r_4_1 <= 1
 0 <= r_5_1 <= 1
 0 <= r_6_1 <= 1
 0 <= r_7_1 <= 1
 0 <= r_8_1 <= 1
 0 <= r_1_2 <= 1
 0 <= r_2_2 <= 1
 0 <= r_3_2 <= 1
 0 <= r_4_2 <= 1
 0 <= r_5_2 <= 1
 0 <= r_6_2 <= 1
 0 <= r_7_2 <= 1
 0 <= r_8_2 <= 1
End
